Minimize
  - 32 y_0 - 38 y_1 - 18 y_2 - 42 y_3 - 82 y_4 - 65 y_5 - 114 y_6 - 84 y_7
   - 59 y_8 - 87 y_9 - 110 y_10 - 95 y_11 - 96 y_12 - 68 y_13 - 112 y_14
   - 81 y_15 - 62 y_16 - 59 y_17 - 20 y_18 - 81 y_20 - 95 y_21 - 108 y_22
   - 51 y_23 - 111 y_24 - 107 y_25 - 28 y_26 - 100 y_27 - 63 y_28 - 68 y_29
   - 90 y_30 - 80 y_31 - 52 y_32 - 64 y_33 - 83 y_34 - 83 y_35 - 73 y_36
   - 92 y_37 - 98 y_38 - 62 y_39 - 39 y_40 - 58 y_41 - 55 y_42 - 56 y_43
   - 94 y_44 - 74 y_45 - 57 y_46 - 99 y_47 - 40 y_48 - 104 y_49 - 99 y_50
   - 53 y_51 - 29 y_52 - 117 y_53 - 41 y_54 - 95 y_55 - 35 y_56 - 63 y_57
   - 101 y_58 - 51 y_59 - 78 y_60 - 54 y_61 - 75 y_62 - 29 y_63 - 73 y_64
   - 60 y_65 - 91 y_66 - 78 y_67 - 31 y_68 - 92 y_69 - 90 y_70 - 73 y_71
   - 93 y_72 - 14 y_73 - 27 y_74 - 109 y_75 - 86 y_76 - 42 y_77 - 27 y_78
   - 34 y_79 - 51 y_80 - 103 y_81 - 91 y_82 - 69 y_83 - 22 y_84 - 101 y_85
   - 116 y_86 - 73 y_87 - 57 y_88 - 40 y_89 - 41 y_90 - 8 y_91 - 75 y_92
   - 71 y_93 - 68 y_94 - 14 y_95 - 109 y_96 - 65 y_97 - 49 y_98 - 91 y_99
   + 6843 Constant
Subject To
 c_0: y_18 = 1
 c_1_0: y_0 + y_32 + y_40 + y_52 + y_54 + y_56 + y_68 + y_73 + y_74 + y_78
   + y_80 + y_84 + y_90 + y_98 >= 1
 c_1_1: y_1 + y_3 + y_23 + y_26 + y_40 + y_42 + y_43 + y_46 + y_48 + y_61
   + y_63 + y_68 + y_77 + y_79 + y_89 >= 1
 c_1_2: y_2 + y_18 + y_19 + y_26 + y_63 + y_68 + y_79 + y_91 + y_95 >= 1
 c_1_3: y_1 + y_3 + y_23 + y_39 + y_40 + y_43 + y_46 + y_48 + y_51 + y_59
   + y_61 + y_63 + y_68 + y_77 + y_79 >= 1
 c_1_4: y_4 + y_15 + y_20 + y_28 + y_44 + y_66 + y_67 + y_69 + y_70 + y_71
   + y_92 >= 1
 c_1_5: y_5 + y_16 + y_35 + y_93 + y_94 + y_97 >= 1
 c_1_6: y_6 + y_14 + y_24 + y_53 + y_75 + y_86 + y_96 >= 1
 c_1_7: y_7 + y_21 + y_31 + y_36 + y_37 + y_45 + y_55 + y_62 + y_76 + y_85
   + y_93 + y_99 >= 1
 c_1_8: y_8 + y_13 + y_16 + y_17 + y_32 + y_36 + y_45 + y_51 + y_54 + y_59
   + y_62 + y_65 + y_80 + y_87 + y_90 + y_93 + y_97 + y_98 >= 1
 c_1_9: y_9 + y_35 + y_94 + y_99 >= 1
 c_1_10: y_10 + y_11 + y_12 + y_14 + y_22 + y_24 + y_25 + y_47 + y_53
   + y_75 + y_86 + y_96 >= 1
 c_1_11: y_10 + y_11 + y_12 + y_21 + y_22 + y_25 + y_30 + y_34 + y_47
   + y_60 + y_76 + y_81 >= 1
 c_1_12: y_10 + y_11 + y_12 + y_21 + y_22 + y_25 + y_47 + y_76 + y_81 >= 1
 c_1_13: y_8 + y_13 + y_17 + y_34 + y_36 + y_45 + y_51 + y_57 + y_59 + y_60
   + y_62 + y_64 + y_65 + y_76 + y_83 + y_87 + y_98 >= 1
 c_1_14: y_6 + y_10 + y_14 + y_22 + y_24 + y_25 + y_53 + y_75 + y_86 + y_96
   >= 1
 c_1_15: y_4 + y_15 + y_20 + y_44 + y_70 + y_71 + y_92 >= 1
 c_1_16: y_5 + y_8 + y_16 + y_17 + y_31 + y_32 + y_36 + y_65 + y_80 + y_93
   + y_94 + y_97 >= 1
 c_1_17: y_8 + y_13 + y_16 + y_17 + y_32 + y_36 + y_45 + y_54 + y_59 + y_62
   + y_65 + y_80 + y_90 + y_93 + y_94 + y_97 + y_98 >= 1
 c_1_18: y_2 + y_18 + y_19 + y_26 + y_63 + y_79 + y_91 + y_95 >= 1
 c_1_19: y_2 + y_18 + y_19 + y_73 + y_91 + y_95 >= 1
 c_1_20: y_4 + y_15 + y_20 + y_28 + y_29 + y_33 + y_44 + y_66 + y_67 + y_69
   + y_70 + y_71 + y_72 + y_92 >= 1
 c_1_21: y_7 + y_11 + y_12 + y_21 + y_22 + y_25 + y_37 + y_47 + y_76 + y_81
   >= 1
 c_1_22: y_10 + y_11 + y_12 + y_14 + y_21 + y_22 + y_24 + y_25 + y_47
   + y_53 + y_75 + y_81 + y_86 + y_96 >= 1
 c_1_23: y_1 + y_3 + y_23 + y_28 + y_29 + y_33 + y_39 + y_41 + y_42 + y_43
   + y_46 + y_48 + y_61 + y_77 + y_79 + y_88 + y_89 >= 1
 c_1_24: y_6 + y_10 + y_14 + y_22 + y_24 + y_25 + y_53 + y_75 + y_86 + y_96
   >= 1
 c_1_25: y_10 + y_11 + y_12 + y_14 + y_21 + y_22 + y_24 + y_25 + y_47
   + y_81 + y_86 >= 1
 c_1_26: y_1 + y_2 + y_18 + y_26 + y_63 + y_68 + y_77 + y_79 + y_89 + y_95
   >= 1
 c_1_27: y_27 + y_38 + y_49 + y_50 + y_58 + y_66 + y_72 >= 1
 c_1_28: y_4 + y_20 + y_23 + y_28 + y_29 + y_33 + y_39 + y_41 + y_42 + y_43
   + y_46 + y_61 + y_67 + y_71 + y_88 + y_92 >= 1
 c_1_29: y_20 + y_23 + y_28 + y_29 + y_33 + y_39 + y_42 + y_43 + y_46
   + y_61 + y_67 + y_92 >= 1
 c_1_30: y_11 + y_30 + y_34 + y_60 + y_64 + y_75 + y_82 + y_96 >= 1
 c_1_31: y_7 + y_16 + y_31 + y_36 + y_37 + y_45 + y_55 + y_62 + y_93 + y_94
   + y_97 + y_99 >= 1
 c_1_32: y_0 + y_8 + y_16 + y_17 + y_32 + y_40 + y_51 + y_54 + y_56 + y_59
   + y_65 + y_80 + y_90 + y_93 + y_97 + y_98 >= 1
 c_1_33: y_20 + y_23 + y_28 + y_29 + y_33 + y_39 + y_42 + y_43 + y_46
   + y_61 + y_67 + y_71 + y_88 + y_92 >= 1
 c_1_34: y_11 + y_13 + y_30 + y_34 + y_57 + y_60 + y_64 + y_76 + y_82
   + y_83 + y_87 >= 1
 c_1_35: y_5 + y_9 + y_35 + y_94 + y_99 >= 1
 c_1_36: y_7 + y_8 + y_13 + y_16 + y_17 + y_31 + y_36 + y_37 + y_45 + y_62
   + y_65 + y_87 + y_93 + y_94 + y_97 >= 1
 c_1_37: y_7 + y_21 + y_31 + y_36 + y_37 + y_55 + y_62 + y_81 + y_85 + y_99
   >= 1
 c_1_38: y_27 + y_38 + y_49 + y_50 + y_58 + y_72 + y_82 >= 1
 c_1_39: y_3 + y_23 + y_28 + y_29 + y_33 + y_39 + y_43 + y_46 + y_57 + y_61
   + y_64 + y_67 + y_83 >= 1
 c_1_40: y_0 + y_1 + y_3 + y_32 + y_40 + y_48 + y_51 + y_52 + y_54 + y_56
   + y_59 + y_68 + y_79 + y_80 + y_90 + y_98 >= 1
 c_1_41: y_23 + y_28 + y_41 + y_42 + y_61 + y_71 + y_77 + y_88 + y_89 >= 1
 c_1_42: y_1 + y_23 + y_28 + y_29 + y_33 + y_41 + y_42 + y_43 + y_46 + y_61
   + y_71 + y_77 + y_88 + y_89 >= 1
 c_1_43: y_1 + y_3 + y_23 + y_28 + y_29 + y_33 + y_39 + y_42 + y_43 + y_46
   + y_48 + y_61 + y_88 >= 1
 c_1_44: y_4 + y_15 + y_20 + y_44 + y_66 + y_69 + y_70 + y_92 >= 1
 c_1_45: y_7 + y_8 + y_13 + y_17 + y_31 + y_36 + y_45 + y_57 + y_60 + y_62
   + y_65 + y_76 + y_83 + y_87 >= 1
 c_1_46: y_1 + y_3 + y_23 + y_28 + y_29 + y_33 + y_39 + y_42 + y_43 + y_46
   + y_48 + y_61 + y_77 + y_88 >= 1
 c_1_47: y_10 + y_11 + y_12 + y_21 + y_22 + y_25 + y_47 + y_76 + y_81 >= 1
 c_1_48: y_1 + y_3 + y_23 + y_40 + y_43 + y_46 + y_48 + y_51 + y_59 + y_61
   + y_63 + y_68 + y_77 + y_79 + y_98 >= 1
 c_1_49: y_27 + y_38 + y_49 + y_50 + y_58 + y_66 + y_72 >= 1
 c_1_50: y_27 + y_38 + y_49 + y_50 + y_58 + y_66 + y_72 >= 1
 c_1_51: y_3 + y_8 + y_13 + y_32 + y_40 + y_48 + y_51 + y_57 + y_59 + y_65
   + y_80 + y_83 + y_90 + y_98 >= 1
 c_1_52: y_0 + y_40 + y_52 + y_54 + y_56 + y_68 + y_73 + y_74 + y_78 + y_84
   + y_90 >= 1
 c_1_53: y_6 + y_10 + y_14 + y_22 + y_24 + y_53 + y_75 + y_86 + y_96 >= 1
 c_1_54: y_0 + y_8 + y_17 + y_32 + y_40 + y_52 + y_54 + y_56 + y_74 + y_78
   + y_80 + y_90 + y_98 >= 1
 c_1_55: y_7 + y_31 + y_37 + y_55 + y_85 + y_99 >= 1
 c_1_56: y_0 + y_32 + y_40 + y_52 + y_54 + y_56 + y_68 + y_74 + y_78 + y_80
   + y_84 + y_90 + y_98 >= 1
 c_1_57: y_13 + y_34 + y_39 + y_45 + y_51 + y_57 + y_59 + y_60 + y_64
   + y_65 + y_83 + y_87 + y_98 >= 1
 c_1_58: y_27 + y_38 + y_49 + y_50 + y_58 + y_66 + y_69 + y_72 >= 1
 c_1_59: y_3 + y_8 + y_13 + y_17 + y_32 + y_40 + y_48 + y_51 + y_57 + y_59
   + y_65 + y_80 + y_83 + y_90 + y_98 >= 1
 c_1_60: y_11 + y_13 + y_30 + y_34 + y_45 + y_57 + y_60 + y_64 + y_76
   + y_83 + y_87 >= 1
 c_1_61: y_1 + y_3 + y_23 + y_28 + y_29 + y_33 + y_39 + y_41 + y_42 + y_43
   + y_46 + y_48 + y_61 + y_77 + y_88 >= 1
 c_1_62: y_7 + y_8 + y_13 + y_17 + y_31 + y_36 + y_37 + y_45 + y_62 + y_65
   + y_76 + y_87 + y_93 + y_97 >= 1
 c_1_63: y_1 + y_2 + y_3 + y_18 + y_26 + y_48 + y_63 + y_68 + y_77 + y_79
   + y_89 + y_95 >= 1
 c_1_64: y_13 + y_30 + y_34 + y_39 + y_57 + y_60 + y_64 + y_82 + y_83
   + y_87 >= 1
 c_1_65: y_8 + y_13 + y_16 + y_17 + y_32 + y_36 + y_45 + y_51 + y_57 + y_59
   + y_62 + y_65 + y_80 + y_87 + y_90 + y_93 + y_97 + y_98 >= 1
 c_1_66: y_4 + y_20 + y_27 + y_44 + y_49 + y_50 + y_58 + y_66 + y_67 + y_69
   + y_70 + y_72 + y_92 >= 1
 c_1_67: y_4 + y_20 + y_28 + y_29 + y_33 + y_39 + y_66 + y_67 + y_72 + y_92
   >= 1
 c_1_68: y_0 + y_1 + y_2 + y_3 + y_26 + y_40 + y_48 + y_52 + y_56 + y_63
   + y_68 + y_79 + y_90 + y_95 >= 1
 c_1_69: y_4 + y_20 + y_44 + y_58 + y_66 + y_69 + y_70 + y_72 + y_92 >= 1
 c_1_70: y_4 + y_15 + y_20 + y_44 + y_66 + y_69 + y_70 + y_71 + y_92 >= 1
 c_1_71: y_4 + y_15 + y_20 + y_28 + y_33 + y_41 + y_42 + y_70 + y_71 + y_88
   + y_92 >= 1
 c_1_72: y_20 + y_27 + y_38 + y_49 + y_50 + y_58 + y_66 + y_67 + y_69
   + y_72 >= 1
 c_1_73: y_0 + y_19 + y_52 + y_73 + y_74 + y_78 + y_84 + y_91 + y_95 >= 1
 c_1_74: y_0 + y_52 + y_54 + y_56 + y_73 + y_74 + y_78 + y_84 + y_91 >= 1
 c_1_75: y_6 + y_10 + y_14 + y_22 + y_24 + y_30 + y_53 + y_75 + y_82 + y_86
   + y_96 >= 1
 c_1_76: y_7 + y_11 + y_12 + y_13 + y_21 + y_34 + y_45 + y_47 + y_60 + y_62
   + y_76 + y_81 + y_87 >= 1
 c_1_77: y_1 + y_3 + y_23 + y_26 + y_41 + y_42 + y_46 + y_48 + y_61 + y_63
   + y_77 + y_79 + y_88 + y_89 >= 1
 c_1_78: y_0 + y_52 + y_54 + y_56 + y_73 + y_74 + y_78 + y_84 + y_90 + y_91
   >= 1
 c_1_79: y_1 + y_2 + y_3 + y_18 + y_23 + y_26 + y_40 + y_48 + y_63 + y_68
   + y_77 + y_79 + y_89 >= 1
 c_1_80: y_0 + y_8 + y_16 + y_17 + y_32 + y_40 + y_51 + y_54 + y_56 + y_59
   + y_65 + y_80 + y_90 + y_97 + y_98 >= 1
 c_1_81: y_11 + y_12 + y_21 + y_22 + y_25 + y_37 + y_47 + y_76 + y_81
   + y_85 >= 1
 c_1_82: y_30 + y_34 + y_38 + y_64 + y_75 + y_82 >= 1
 c_1_83: y_13 + y_34 + y_39 + y_45 + y_51 + y_57 + y_59 + y_60 + y_64
   + y_83 + y_87 >= 1
 c_1_84: y_0 + y_52 + y_56 + y_73 + y_74 + y_78 + y_84 + y_91 >= 1
 c_1_85: y_7 + y_37 + y_55 + y_81 + y_85 + y_99 >= 1
 c_1_86: y_6 + y_10 + y_14 + y_22 + y_24 + y_25 + y_53 + y_75 + y_86 + y_96
   >= 1
 c_1_87: y_8 + y_13 + y_34 + y_36 + y_45 + y_57 + y_60 + y_62 + y_64 + y_65
   + y_76 + y_83 + y_87 >= 1
 c_1_88: y_23 + y_28 + y_33 + y_41 + y_42 + y_43 + y_46 + y_61 + y_71
   + y_77 + y_88 + y_89 + y_92 >= 1
 c_1_89: y_1 + y_23 + y_26 + y_41 + y_42 + y_63 + y_77 + y_79 + y_88 + y_89
   >= 1
 c_1_90: y_0 + y_8 + y_17 + y_32 + y_40 + y_51 + y_52 + y_54 + y_56 + y_59
   + y_65 + y_68 + y_78 + y_80 + y_90 + y_98 >= 1
 c_1_91: y_2 + y_18 + y_19 + y_73 + y_74 + y_78 + y_84 + y_91 + y_95 >= 1
 c_1_92: y_4 + y_15 + y_20 + y_28 + y_29 + y_33 + y_44 + y_66 + y_67 + y_69
   + y_70 + y_71 + y_88 + y_92 >= 1
 c_1_93: y_5 + y_7 + y_8 + y_16 + y_17 + y_31 + y_32 + y_36 + y_62 + y_65
   + y_93 + y_94 + y_97 >= 1
 c_1_94: y_5 + y_9 + y_16 + y_17 + y_31 + y_35 + y_36 + y_93 + y_94 + y_97
   >= 1
 c_1_95: y_2 + y_18 + y_19 + y_26 + y_63 + y_68 + y_73 + y_91 + y_95 >= 1
 c_1_96: y_6 + y_10 + y_14 + y_22 + y_24 + y_30 + y_53 + y_75 + y_86 + y_96
   >= 1
 c_1_97: y_5 + y_8 + y_16 + y_17 + y_31 + y_32 + y_36 + y_62 + y_65 + y_80
   + y_93 + y_94 + y_97 >= 1
 c_1_98: y_0 + y_8 + y_13 + y_17 + y_32 + y_40 + y_48 + y_51 + y_54 + y_56
   + y_57 + y_59 + y_65 + y_80 + y_90 + y_98 >= 1
 c_1_99: y_7 + y_9 + y_31 + y_35 + y_37 + y_55 + y_85 + y_99 >= 1
Bounds
 Constant = 1
Binaries
 y_0 y_1 y_2 y_3 y_4 y_5 y_6 y_7 y_8 y_9 y_10 y_11 y_12 y_13 y_14 y_15 y_16
 y_17 y_18 y_19 y_20 y_21 y_22 y_23 y_24 y_25 y_26 y_27 y_28 y_29 y_30 y_31
 y_32 y_33 y_34 y_35 y_36 y_37 y_38 y_39 y_40 y_41 y_42 y_43 y_44 y_45 y_46
 y_47 y_48 y_49 y_50 y_51 y_52 y_53 y_54 y_55 y_56 y_57 y_58 y_59 y_60 y_61
 y_62 y_63 y_64 y_65 y_66 y_67 y_68 y_69 y_70 y_71 y_72 y_73 y_74 y_75 y_76
 y_77 y_78 y_79 y_80 y_81 y_82 y_83 y_84 y_85 y_86 y_87 y_88 y_89 y_90 y_91
 y_92 y_93 y_94 y_95 y_96 y_97 y_98 y_99
End
